3
30
8031
[[167,867,958,591,997,725,807, 84,906,924,124,226, 17,967, 97,671,575,513,770,612,723,531,385,333,834,126,227,734,567,903],
 [833,133, 42,409,  3,275,193,916, 94, 76,876,774,983, 33,903,329,425,487,230,388,277,469,615,667,166,874,773,266,433, 97],
 [ 10, 64,  9, 91,  1, 44,  3, 57, 18, 68, 28, 56,  8,  4, 79, 11, 41, 75,  5, 67, 86, 49, 55, 47, 63, 87, 11, 19, 74, 91]]
[927,512,202,420,239,734,804,396,516,391,532,797,232,462,677,694,826,333,986,418,192,787,329,252, 58,608,742,782,277,938]